n = 25;
edge = [| 3, 1 
| 24, 1 
| 1, 2 
| 3, 2 
| 11, 2 
| 12, 2 
| 13, 2 
| 14, 2 
| 21, 2 
| 11, 3 
| 14, 3 
| 21, 3 
| 10, 4 
| 16, 4 
| 17, 4 
| 6, 5 
| 14, 5 
| 24, 5 
| 14, 6 
| 15, 6 
| 16, 6 
| 18, 6 
| 22, 6 
| 25, 6 
| 2, 7 
| 16, 7 
| 17, 7 
| 20, 7 
| 21, 7 
| 1, 8 
| 11, 8 
| 24, 8 
| 1, 9 
| 13, 9 
| 21, 9 
| 24, 9 
| 25, 9 
| 1, 10 
| 2, 10 
| 3, 10 
| 6, 10 
| 20, 10 
| 22, 10 
| 23, 10 
| 3, 11 
| 5, 11 
| 6, 11 
| 7, 11 
| 12, 11 
| 16, 11 
| 17, 11 
| 18, 11 
| 20, 11 
| 23, 11 
| 25, 12 
| 2, 13 
| 6, 13 
| 16, 13 
| 24, 13 
| 2, 14 
| 11, 14 
| 20, 14 
| 25, 14 
| 6, 15 
| 7, 15 
| 22, 15 
| 15, 16 
| 17, 16 
| 18, 16 
| 21, 16 
| 24, 16 
| 1, 17 
| 3, 17 
| 20, 17 
| 21, 17 
| 5, 18 
| 7, 18 
| 8, 18 
| 16, 18 
| 19, 18 
| 24, 18 
| 25, 18 
| 14, 19 
| 15, 19 
| 16, 19 
| 21, 19 
| 22, 19 
| 11, 20 
| 13, 20 
| 14, 20 
| 17, 20 
| 24, 20 
| 3, 21 
| 16, 21 
| 25, 21 
| 3, 22 
| 10, 22 
| 12, 22 
| 17, 22 
| 19, 22 
| 2, 23 
| 4, 23 
| 5, 23 
| 8, 23 
| 11, 23 
| 17, 23 
| 19, 23 
| 25, 23 
| 3, 24 
| 13, 24 
| 15, 24 
| 18, 24 
| 11, 25 
| 13, 25 
| 14, 25 
| 20, 25 
| 22, 25 
|];
